TCS_Benchmarks/redos_fix/regexlib2_output_distinct_3293_3292_16_0.smt2
(set-logic QF_S)
(declare-const x String)
(assert (str.in.re x (re.inter  (re.++ (re.*  (str.to.re "\u{3d}") ) (re.*  (re.union  (str.to.re "\u{3d}") (re.union  (str.to.re "\u{61}") (re.union  (str.to.re "\u{3f}") (re.union  (str.to.re "\u{26}") (re.union  (str.to.re "\u{27}") (re.union  (str.to.re "\u{26}") (re.union  (str.to.re "\u{6d}") (re.union (re.range "\u{61}" "\u{7a}") (re.union  (str.to.re "\u{6f}") (re.union  (str.to.re "\u{70}") (re.union  (str.to.re "\u{71}") (re.union  (str.to.re "\u{2e}") (re.union  (str.to.re "\u{2f}") (re.union  (str.to.re "\u{74}") (re.union  (str.to.re "\u{75}") (re.union  (str.to.re "\u{3b}") (re.range "\u{30}" "\u{39}"))))))))))))))))) ))  (re.++ (re.*  (str.to.re "\u{3d}") ) (re.*  (re.union  (str.to.re "\u{3d}") (re.union  (str.to.re "\u{61}") (re.union  (str.to.re "\u{3f}") (re.union  (str.to.re "\u{26}") (re.union  (str.to.re "\u{27}") (re.union  (str.to.re "\u{26}") (re.union  (str.to.re "\u{6d}") (re.union (re.range "\u{61}" "\u{7a}") (re.union  (str.to.re "\u{6f}") (re.union  (str.to.re "\u{70}") (re.union  (str.to.re "\u{71}") (re.union  (str.to.re "\u{2e}") (re.union  (str.to.re "\u{2f}") (re.union  (str.to.re "\u{74}") (re.union  (str.to.re "\u{75}") (re.union  (str.to.re "\u{3b}") (re.range "\u{30}" "\u{39}"))))))))))))))))) )) )))
(check-sat)
(get-model)