TCS_Benchmarks/redos_fix/regexlib2_output_distinct_3293_3292_16_0.txt
(=*)([\=a\?&'\&ma-zopq\.\/tu;0-9]*)
(=*)([\=a\?&'\&ma-zopq\.\/tu;0-9]*)